g3 0 1 0	# problem wastewater04m2
 55 65 1 0 59	# vars, constraints, objectives, ranges, eqns
 18 0	# nonlinear constraints, objectives
 0 0	# network constraints: nonlinear, linear
 12 0 0	# nonlinear vars in constraints, objectives, both
 0 0 0 1	# linear network variables; functions; arith, flags
 0 0 0 0 0	# discrete variables: binary, integer, nonlinear (b,c,o)
 209 2	# nonzeros in Jacobian, gradients
 3 3	# max name lengths: constraints, variables
 0 0 0 0 0	# common exprs: b,c,o,c1,o1
b
0 0 1e6
0 0 1e6
0 0 1e6
0 0 1e6
0 0 1e6
0 0 1e6
0 0 1e6
0 0 1e6
0 0 1e6
0 0 1e6
0 0 1e6
0 0 1e6
0 0 1e6
0 0 1e6
0 0 1e6
0 0 1e6
0 0 1e6
0 0 1e6
0 0 1e6
0 0 1e6
0 0 1e6
0 0 1e6
0 0 1e6
0 0 1e6
0 0 1e6
0 0 1e6
0 0 1e6
0 0 1e6
0 0 1e6
0 0 1e6
0 0 1e6
0 0 1e6
0 0 1e6
0 0 1e6
0 0 1e6
0 0 1e6
0 0 1e6
0 0 1e6
0 0 1e6
0 0 1e6
0 0 1e6
0 0 1e6
0 0 1e6
0 0 1e6
0 0 1e6
0 0 1e6
0 0 1e6
0 0 1e6
0 0 1e6
0 0 1e6
0 0 1e6
0 0 1e6
0 0 1e6
0 0 1e6
0 0 1e6
r
4 0
4 0
4 0
4 0
4 0
4 0
4 0
4 0
4 0
4 0
4 0
4 0
4 0
4 0
4 0
4 0
4 0
4 0
4 -40
4 -40
4 0
4 0
4 0
4 0
4 0
4 -4e3
4 -800
4 -600
4 -8e3
4 0
4 0
4 0
4 0
4 0
4 0
4 0
4 0
4 0
4 0
4 0
4 0
4 0
4 0
4 0
4 0
4 0
4 0
4 1
4 1
1 0
1 0
1 0
1 0
4 0
4 0
4 0
4 0
4 0
4 0
4 0
4 0
4 1
4 1
1 0
1 0
C0
o2
v2
v6
C1
o2
v3
v6
C2
o2
v2
v7
C3
o2
v3
v7
C4
o2
v4
v8
C5
o2
v5
v8
C6
o2
v4
v9
C7
o2
v5
v9
C8
o2
v2
v10
C9
o2
v3
v10
C10
o2
v4
v11
C11
o2
v5
v11
C12
o2
v0
v6
C13
o2
v0
v7
C14
o2
v1
v8
C15
o2
v1
v9
C16
o2
v0
v10
C17
o2
v1
v11
C18
n0
C19
n0
C20
n0
C21
n0
C22
n0
C23
n0
C24
n0
C25
n0
C26
n0
C27
n0
C28
n0
C29
n0
C30
n0
C31
n0
C32
n0
C33
n0
C34
n0
C35
n0
C36
n0
C37
n0
C38
n0
C39
n0
C40
n0
C41
n0
C42
n0
C43
n0
C44
n0
C45
n0
C46
n0
C47
n0
C48
n0
C49
n0
C50
n0
C51
n0
C52
n0
C53
n0
C54
n0
C55
n0
C56
n0
C57
n0
C58
n0
C59
n0
C60
n0
C61
n0
C62
n0
C63
n0
C64
n0
O0 0
n0
k54
7
14
19
24
29
34
38
42
46
50
54
58
61
64
67
70
73
76
79
82
85
88
91
94
97
101
105
109
113
117
121
125
129
132
135
138
141
144
147
150
153
157
161
165
169
173
177
181
185
189
193
197
201
205
J0 3
2 0
6 0
25 -1
J1 3
3 0
6 0
26 -1
J2 3
2 0
7 0
27 -1
J3 3
3 0
7 0
28 -1
J4 3
4 0
8 0
29 -1
J5 3
5 0
8 0
30 -1
J6 3
4 0
9 0
31 -1
J7 3
5 0
9 0
32 -1
J8 3
2 0
10 0
37 -1
J9 3
3 0
10 0
38 -1
J10 3
4 0
11 0
39 -1
J11 3
5 0
11 0
40 -1
J12 3
0 0
6 0
12 -1
J13 3
0 0
7 0
13 -1
J14 3
1 0
8 0
14 -1
J15 3
1 0
9 0
15 -1
J16 3
0 0
10 0
18 -1
J17 3
1 0
11 0
19 -1
J18 3
16 -1
20 -1
21 -1
J19 3
17 -1
22 -1
23 -1
J20 5
0 1
12 -1
14 -1
20 -1
22 -1
J21 5
1 1
13 -1
15 -1
21 -1
23 -1
J22 4
0 1
12 -1
13 -1
18 -1
J23 4
1 1
14 -1
15 -1
19 -1
J24 5
16 -1
17 -1
18 -1
19 -1
24 1
J25 3
33 -1
41 -1
43 -1
J26 3
34 -1
42 -1
44 -1
J27 3
35 -1
45 -1
47 -1
J28 3
36 -1
46 -1
48 -1
J29 2
41 -1
51 4e3
J30 2
42 -1
51 800
J31 2
43 -1
52 4e3
J32 2
44 -1
52 800
J33 2
45 -1
53 600
J34 2
46 -1
53 8e3
J35 2
47 -1
54 600
J36 2
48 -1
54 8e3
J37 2
33 -1
49 4e3
J38 2
34 -1
49 800
J39 2
35 -1
50 600
J40 2
36 -1
50 8e3
J41 2
20 -1
51 40
J42 2
21 -1
52 40
J43 2
22 -1
53 40
J44 2
23 -1
54 40
J45 2
16 -1
49 40
J46 2
17 -1
50 40
J47 3
49 1
51 1
52 1
J48 3
50 1
53 1
54 1
J49 5
0 -200
25 1
29 1
41 1
45 1
J50 5
0 -200
26 1
30 1
42 1
46 1
J51 5
1 -200
27 1
31 1
43 1
47 1
J52 5
1 -200
28 1
32 1
44 1
48 1
J53 5
2 -1
25 5e-2
29 5e-2
41 5e-2
45 5e-2
J54 5
3 -1
26 1
30 1
42 1
46 1
J55 5
4 -1
27 1
31 1
43 1
47 1
J56 5
5 -1
28 2.4e-2
32 2.4e-2
44 2.4e-2
48 2.4e-2
J57 4
2 1
25 -1
27 -1
37 -1
J58 4
3 1
26 -1
28 -1
38 -1
J59 4
4 1
29 -1
31 -1
39 -1
J60 4
5 1
30 -1
32 -1
40 -1
J61 3
6 1
7 1
10 1
J62 3
8 1
9 1
11 1
J63 5
24 -10
33 1
35 1
37 1
39 1
J64 5
24 -10
34 1
36 1
38 1
40 1
G0 2
0 1
1 1
